npieces = 10;	
nplayers = 25;	
duration = [1, 9, 4, 6, 4, 9, 9, 4, 8, 10];
rehearsal = [[1, 1, 1, 1, 1, 1, 1, 1, 0, 0], [0, 0, 0, 1, 1, 1, 1, 1, 0, 1], [0, 1, 1, 1, 1, 1, 1, 1, 1, 1], [0, 0, 0, 0, 1, 1, 1, 1, 1, 1], [1, 1, 1, 0, 1, 1, 1, 0, 1, 1], [1, 1, 0, 0, 1, 1, 1, 0, 0, 1], [0, 0, 0, 0, 1, 1, 1, 1, 1, 1], [1, 1, 1, 0, 0, 1, 1, 1, 1, 1], [1, 0, 1, 1, 0, 0, 0, 1, 1, 1], [1, 1, 1, 1, 1, 0, 1, 1, 1, 1], [1, 0, 1, 0, 0, 1, 0, 1, 1, 1], [1, 1, 1, 1, 1, 0, 0, 1, 1, 1], [0, 1, 0, 1, 0, 1, 1, 1, 1, 0], [0, 0, 0, 1, 1, 0, 1, 0, 1, 0], [0, 1, 1, 1, 1, 1, 1, 1, 0, 1], [1, 1, 0, 1, 0, 1, 0, 1, 1, 1], [0, 1, 0, 1, 1, 1, 1, 0, 1, 1], [1, 1, 1, 1, 1, 1, 0, 1, 1, 1], [0, 1, 1, 0, 0, 0, 0, 1, 0, 1], [1, 1, 1, 0, 1, 1, 1, 1, 0, 1], [1, 1, 0, 1, 1, 1, 0, 1, 0, 1], [1, 1, 1, 1, 1, 0, 1, 1, 0, 1], [0, 1, 1, 1, 1, 1, 1, 1, 1, 1], [1, 0, 0, 1, 1, 1, 1, 0, 0, 1], [1, 1, 1, 1, 0, 1, 1, 0, 1, 1]];